105749
69 42 77 64 75 11 78 62 22 10 15 17 70 49 36 20 8 9 58 37 95 41 90 61 6 88 80 3 71 35 33 2 93 96 53 84 25 40 87 30 81 47 65 83 63 51 85 76 45 7 26 21 12 31 57 19 43 34 24 97 73 68 46 72 50 60 79 98 99 94 54 59 32 56 13 16 23 48 39 44 28 89 14 91 66 67 1 18 92 38 52 55 29 4 82 5 86 74 27 0 
